30
1 0 24
2 0 64
2 1 21
3 0 54
3 1 39
3 2 33
4 0 5
4 1 1
4 2 7
4 3 92
5 0 60
5 1 9
5 2 62
5 3 5
5 4 44
6 0 39
6 1 1
6 2 49
6 3 56
6 4 48
6 5 2
7 0 40
7 1 81
7 2 90
7 3 53
7 4 81
7 5 16
7 6 88
8 0 72
8 1 77
8 2 58
8 3 33
8 4 72
8 5 57
8 6 19
8 7 77
9 0 90
9 1 7
9 2 91
9 3 99
9 4 70
9 5 82
9 6 100
9 7 85
9 8 95
10 0 77
10 1 98
10 2 35
10 3 99
10 4 54
10 5 96
10 6 96
10 7 88
10 8 62
10 9 32
11 0 88
11 1 68
11 2 7
11 3 22
11 4 54
11 5 61
11 6 43
11 7 54
11 8 72
11 9 46
11 10 99
12 0 6
12 1 3
12 2 58
12 3 63
12 4 5
12 5 55
12 6 38
12 7 85
12 8 58
12 9 93
12 10 17
12 11 81
13 0 21
13 1 30
13 2 64
13 3 30
13 4 96
13 5 73
13 6 50
13 7 7
13 8 47
13 9 8
13 10 95
13 11 10
13 12 5
14 0 49
14 1 2
14 2 38
14 3 91
14 4 90
14 5 100
14 6 58
14 7 61
14 8 32
14 9 44
14 10 65
14 11 83
14 12 67
14 13 50
15 0 97
15 1 73
15 2 49
15 3 52
15 4 96
15 5 68
15 6 92
15 7 28
15 8 4
15 9 1
15 10 48
15 11 14
15 12 38
15 13 7
15 14 86
16 0 4
16 1 81
16 2 91
16 3 58
16 4 25
16 5 97
16 6 12
16 7 18
16 8 8
16 9 45
16 10 84
16 11 51
16 12 13
16 13 43
16 14 87
16 15 7
17 0 71
17 1 27
17 2 43
17 3 56
17 4 49
17 5 87
17 6 5
17 7 9
17 8 66
17 9 94
17 10 51
17 11 74
17 12 90
17 13 25
17 14 92
17 15 28
17 16 16
18 0 72
18 1 32
18 2 46
18 3 3
18 4 90
18 5 43
18 6 1
18 7 2
18 8 2
18 9 38
18 10 24
18 11 27
18 12 84
18 13 49
18 14 12
18 15 34
18 16 90
18 17 62
19 0 89
19 1 15
19 2 2
19 3 54
19 4 85
19 5 27
19 6 90
19 7 21
19 8 76
19 9 6
19 10 41
19 11 21
19 12 1
19 13 38
19 14 84
19 15 52
19 16 51
19 17 89
19 18 12
20 0 36
20 1 95
20 2 13
20 3 95
20 4 92
20 5 88
20 6 93
20 7 19
20 8 11
20 9 75
20 10 83
20 11 97
20 12 67
20 13 94
20 14 59
20 15 53
20 16 30
20 17 23
20 18 82
20 19 54
21 0 58
21 1 46
21 2 54
21 3 51
21 4 93
21 5 21
21 6 9
21 7 58
21 8 84
21 9 72
21 10 59
21 11 69
21 12 6
21 13 52
21 14 10
21 15 3
21 16 61
21 17 35
21 18 96
21 19 18
21 20 65
22 0 34
22 1 10
22 2 44
22 3 74
22 4 71
22 5 32
22 6 15
22 7 85
22 8 22
22 9 61
22 10 5
22 11 27
22 12 28
22 13 26
22 14 3
22 15 29
22 16 45
22 17 35
22 18 69
22 19 12
22 20 59
22 21 50
23 0 76
23 1 76
23 2 15
23 3 43
23 4 8
23 5 43
23 6 10
23 7 46
23 8 79
23 9 94
23 10 65
23 11 98
23 12 4
23 13 18
23 14 70
23 15 69
23 16 14
23 17 46
23 18 66
23 19 93
23 20 13
23 21 49
23 22 15
24 0 60
24 1 16
24 2 8
24 3 64
24 4 34
24 5 12
24 6 11
24 7 8
24 8 3
24 9 41
24 10 13
24 11 4
24 12 83
24 13 88
24 14 65
24 15 99
24 16 17
24 17 18
24 18 11
24 19 70
24 20 60
24 21 17
24 22 98
24 23 79
25 0 28
25 1 15
25 2 58
25 3 11
25 4 51
25 5 86
25 6 39
25 7 33
25 8 75
25 9 76
25 10 13
25 11 91
25 12 76
25 13 94
25 14 87
25 15 48
25 16 4
25 17 61
25 18 72
25 19 12
25 20 63
25 21 5
25 22 19
25 23 19
25 24 87
26 0 59
26 1 3
26 2 69
26 3 81
26 4 82
26 5 16
26 6 16
26 7 30
26 8 17
26 9 21
26 10 82
26 11 88
26 12 63
26 13 52
26 14 37
26 15 16
26 16 20
26 17 70
26 18 51
26 19 22
26 20 27
26 21 19
26 22 31
26 23 20
26 24 7
26 25 37
27 0 90
27 1 15
27 2 100
27 3 7
27 4 10
27 5 75
27 6 29
27 7 68
27 8 91
27 9 59
27 10 46
27 11 13
27 12 17
27 13 3
27 14 39
27 15 35
27 16 58
27 17 79
27 18 6
27 19 21
27 20 99
27 21 91
27 22 33
27 23 87
27 24 74
27 25 65
27 26 17
28 0 1
28 1 27
28 2 47
28 3 21
28 4 57
28 5 44
28 6 18
28 7 76
28 8 77
28 9 22
28 10 90
28 11 42
28 12 60
28 13 64
28 14 43
28 15 94
28 16 17
28 17 29
28 18 17
28 19 14
28 20 37
28 21 64
28 22 61
28 23 86
28 24 96
28 25 98
28 26 15
28 27 35
29 0 95
29 1 83
29 2 73
29 3 52
29 4 78
29 5 10
29 6 44
29 7 1
29 8 93
29 9 20
29 10 31
29 11 97
29 12 67
29 13 12
29 14 63
29 15 95
29 16 25
29 17 7
29 18 78
29 19 43
29 20 78
29 21 3
29 22 32
29 23 81
29 24 44
29 25 66
29 26 78
29 27 79
29 28 88
